A 3.5244753
Ġdisaster 10.535385
Ġprepared 3.8396113
ness 0.00067472464
Ġplan 2.0651681
Ġstarts 5.8276973
Ġwith 0.20798147
Ġan 2.4238608
Ġemergency 1.4206367
Ġprepared 3.3842022
ness 0.001148838
Ġkit 0.20510969
Ġthat 2.7365394
Ġmust 5.934946
Ġnecessarily 10.289429
Ġinclude 0.973862
Ġdrinking 5.6579404
Ġwater 0.0091505395
Ġfor 3.3849103
Ġeach 1.8726673
Ġperson 1.8113543
, 2.7841651
Ġa 2.797545
Ġsupply 3.079789
Ġof 0.040833455
Ġfood 0.82638276
Ġfor 2.3808472
Ġseveral 2.6889875
Ġdays 0.027064204
, 0.3287601
Ġa 1.6602945
Ġradio 2.6480582
Ġreceiver 4.698292
Ġfor 3.1213098
Ġlistening 2.9605982
Ġto 0.097911894
Ġinformation 3.001837
. 6.706846
ĠMoreover 6.240585
, 0.112154774
Ġit 1.5039047
Ġis 0.4268474
Ġimportant 1.8137425
Ġto 0.109684914
Ġhave 0.898161
Ġa 0.90059006
Ġflashlight 2.2183857
Ġand 1.5837748
Ġextra 3.4916499
Ġbatteries 0.02583099
Ġin 3.2370646
Ġcase 0.823109
Ġof 0.44291902
Ġa 1.254091
Ġlong 4.717865
Ġstay 4.940895
Ġin 0.9655787
Ġan 3.5594137
Ġemergency 0.54064506
. 2.4226048
ĠAdditionally 7.308758
, 0.071236596
Ġthe 3.0800614
Ġkit 0.8599146
Ġshould 1.2140173
Ġinclude 0.8055948
Ġa 1.09607
Ġdust 7.9574113
Ġmask 0.040927403
Ġand 1.5651503
Ġa 1.0362011
Ġwhistle 2.096877
Ġthat 3.01833
Ġcan 0.86433816
Ġbe 0.32839596
Ġused 0.32966563
Ġas 2.8436685
Ġan 1.7801611
Ġalert 2.587508
Ġor 4.1824484
Ġhelp 5.0835814
Ġsignal 1.128837
. 0.5630772
ĠIf 3.7426755
Ġit 3.1923306
Ġis 0.17460963
Ġnot 2.723187
Ġpossible 0.29113686
Ġto 0.04882727
Ġturn 6.355344
Ġoff 0.6985571
Ġutilities 5.384652
, 0.74692845
Ġit 1.2025765
Ġis 0.13244893
Ġessential 3.0662618
Ġto 0.072294064
Ġput 4.851396
Ġpl 8.429197
iers 1.8762964
Ġand 1.2697481
Ġa 0.6903727
Ġcan 7.36755
Ġopener 0.5880764
Ġin 0.4433129
Ġorder 4.9021673
Ġto 0.02294182
Ġopen 1.6162243
Ġthe 1.8216392
Ġfood 4.0731378
. 2.0573726
Ċ 1.4878489
When 12.178273
Ġpreparing 3.1024396
Ġfor 1.7097588
Ġan 1.1312184
Ġemergency 0.3154891
, 0.42197698
Ġthere 4.1625204
Ġare 0.40567067
Ġmany 2.4357274
Ġother 2.5860422
Ġfactors 2.9315767
Ġthat 1.2169747
Ġinfluence 6.0881634
Ġaction 8.719979
. 1.0855873
ĠThere 4.5895348
Ġis 1.175631
Ġa 1.2665262
Ġparalyzed 14.179976
Ġperson 1.6161628
Ġin 2.091111
Ġthe 0.25326848
Ġfamily 1.8756086
, 0.9028756
Ġso 4.7957234
Ġit 1.3137405
Ġis 0.21727908
Ġcritical 6.69958
Ġto 0.13034092
Ġhave 0.8178405
Ġa 0.6788209
Ġstret 3.5160074
cher 0.00019666688
Ġin 2.7742076
Ġcase 2.2920914
Ġyou 2.9938033
Ġhave 1.0046746
Ġto 0.014429252
Ġleave 2.9560356
Ġthe 0.4512257
Ġhouse 0.33879375
. 0.81755155
ĠIf 1.9302151
Ġcircumstances 10.716193
Ġdo 2.877908
Ġnot 0.012505344
Ġallow 0.17062755
Ġthe 2.6820993
Ġuse 1.3460022
Ġof 0.005431517
Ġa 0.79851025
Ġstret 0.7176286
cher 5.300351e-05
, 0.107125595
Ġspecial 7.4606786
Ġband 5.8523173
ages 0.034557186
Ġare 2.159425
Ġneeded 1.9645823
Ġin 2.869101
Ġorder 0.38238174
Ġto 0.026457626
Ġcarry 2.386696
Ġa 1.2779912
Ġperson 0.60514355
Ġon 2.1346698
Ġtheir 3.0286148
Ġback 0.34502965
. 0.22277345
ĠMoreover 4.309325
, 0.005525069
Ġthe 2.4964468
Ġpackage 6.101604
Ġshould 0.6942186
Ġinclude 0.5726633
Ġall 5.5301113
Ġfirst 5.1652527
Ġaid 0.15413219
Ġsupplies 1.8522781
Ġsuch 2.688404
Ġas 0.012670006
Ġband 0.9773843
ages 0.107148424
, 0.21849754
Ġpain 3.837623
killers 0.4323129
, 0.29766935
Ġand 2.6713917
Ġwound 5.176636
Ġdress 1.4596173
ings 0.00086626475
. 0.15918995
ĠIn 2.7798324
Ġthis 4.234305
Ġcase 0.8199481
, 0.10443204
Ġhelp 8.210499
Ġcan 2.0149076
Ġbe 0.6348617
Ġprovided 1.9699814
Ġin 3.1064277
Ġthe 0.9811935
Ġevent 2.1583405
Ġof 0.10175026
Ġinjuries 3.2086682
Ġof 4.764194
Ġvarying 4.0893435
Ġdegrees 2.3649576
. 0.84686947
ĠOne 6.3191476
Ġfamily 7.6528797
Ġmember 0.26470292
Ġhas 1.6705109
Ġasthma 2.7757428
, 0.52777904
Ġso 0.56393564
Ġseveral 8.195027
Ġinhal 0.6109577
ers 0.022417527
Ġare 1.1940229
Ġprepared 8.150175
Ġin 1.2646903
Ġthe 0.9745486
Ġkit 1.1061194
. 0.24907903
ĠIf 2.0900266
Ġthey 5.51558
Ġbreak 7.107069
, 0.52675873
Ġthen 3.613986
Ġit 1.6945242
Ġis 0.2520804
Ġnecessary 0.77185607
Ġto 0.018411497
Ġuse 4.3224235
Ġbaking 7.7993007
Ġsoda 0.012262506
Ġduring 8.740775
Ġan 1.5676379
Ġattack 1.2574999
Ġof 2.3834653
Ġillness 7.895584
. 0.24662992
Ġ1 12.239265
Ġtablespoon 4.2599797
Ġof 0.24495333
Ġsoda 1.1561396
Ġis 1.6313869
Ġadded 2.1556778
Ġto 0.07169504
Ġ1 1.8868586
Ġliter 1.1934962
Ġof 0.017067263
Ġwater 0.2873193
; 5.8841424
Ġthe 1.2880825
Ġvap 9.254199
ors 0.008092057
Ġneed 8.211409
Ġto 0.010441285
Ġbe 0.08510445
Ġinh 0.20980988
aled 0.00028210194
Ġfor 2.7429852
Ġ5 2.215577
- 0.44182146
7 1.4797939
Ġminutes 0.043933906
. 0.29471225
ĠSuch 6.39033
Ġalk 8.59073
aline 0.31962377
Ġinhal 4.2573195
ations 1.708125
Ġhelp 1.9415044
Ġclear 5.985229
Ġthe 0.20035446
Ġbron 1.4256495
chi 0.25011182
, 2.3934133
Ġremove 3.605348
Ġph 2.8164926
leg 0.00018677162
m 0.0013555062
Ġand 0.8266622
Ġrelieve 3.0106964
Ġinflammation 3.6346664
Ġwhen 8.022745
Ġcoughing 3.0798604
. 0.14314833
Ċ 0.8062662
Additionally 5.7957826
, 0.01300376
Ġit 1.5966159
Ġis 0.04361588
Ġnecessary 1.1303091
Ġnot 6.7138367
Ġto 0.21560901
Ġpanic 6.662166
, 2.1391237
Ġas 3.7765524
Ġcalm 6.0029006
ness 0.8585679
Ġis 1.5457845
Ġthe 1.3199661
Ġboundary 14.200185
Ġbetween 0.28222513
Ġlife 0.10064813
Ġand 0.006118843
Ġdeath 0.0058782073
. 0.3654325
ĠWith 6.057333
Ġthe 1.5725859
Ġloss 5.6506443
Ġof 0.0038767718
Ġcalm 3.895448
ness 1.1563035
Ġand 3.1257687
Ġpeace 5.0060086
Ġof 0.54921097
Ġmind 0.041891582
, 0.13560131
Ġa 2.262799
Ġperson 0.06536935
Ġbegins 3.5364943
Ġto 0.014872961
Ġcommit 7.1263156
Ġrash 5.344747
Ġacts 0.7389986
Ġthat 0.95824075
Ġcan 1.0727781
Ġlead 0.89071673
Ġto 0.027367324
Ġdeath 2.20794
Ġ( 5.9562063
Ar 11.6797085
uru 12.318025
Ġet 2.7457998
Ġal 0.032091253
., 0.43393067
Ġ2021 11.520167
). 0.14080942
ĠThe 2.9851632
Ġimplementation 7.940092
Ġof 0.009546302
Ġthe 1.7222781
Ġplan 2.337512
Ġshould 2.9344296
Ġbegin 2.2889106
Ġby 3.4590535
Ġchecking 3.788413
Ġthe 0.5795746
Ġsupply 5.1936793
Ġof 0.15461801
Ġwater 2.0871906
Ġand 1.1593063
Ġfood 0.2304729
. 1.1036866
ĠMoreover 4.9604287
, 0.0017121305
ĠI 8.177618
Ġneed 2.8857305
Ġto 0.039483767
Ġmake 2.683101
Ġsure 0.23529533
Ġthat 0.10349186
Ġall 1.8600646
Ġmembers 2.268259
Ġof 0.07736966
Ġthe 0.047777064
Ġfamily 0.051823284
Ġare 1.1027275
Ġintact 8.31344
. 1.130427
ĠAfter 3.1049132
Ġthat 0.6589762
, 0.06459697
ĠI 1.2145351
Ġwill 2.4387803
Ġturn 2.0403762
Ġon 0.6445977
Ġthe 0.11092697
Ġradio 0.15344006
Ġand 0.8657109
Ġlisten 1.0113637
Ġto 0.104765244
Ġmessages 5.451581
Ġfrom 1.744905
Ġthe 0.51019716
Ġrescue 4.2135854
Ġservices 1.1104125
. 0.37382776
ĠIn 2.6382058
Ġthe 0.9717833
Ġabsence 2.5115414
Ġof 0.0025911687
Ġcommunication 5.014895
, 0.8377636
Ġit 1.6203033
Ġis 0.1797356
Ġimportant 2.596732
Ġto 0.055352766
Ġremain 5.057956
Ġcalm 0.6470695
Ġand 0.500176
Ġgive 6.8108273
Ġdistress 11.019701
Ġsignals 0.10579732
Ġwith 2.4407904
Ġa 0.55628955
Ġwhistle 0.3846395
. 1.2220951
ĠThe 2.8535283
Ġsuccess 7.6027703
Ġof 0.036691587
Ġthe 0.7368836
Ġplan 1.0862973
Ġshould 5.4715815
Ġbe 0.37347493
Ġjudged 4.0469685
Ġaccording 3.5542185
Ġto 0.004366354
Ġthe 0.34710518
Ġlevel 3.3801184
Ġof 0.011592108
Ġcalm 2.7394233
ness 0.08960696
Ġand 0.8612336
Ġreadiness 3.781285
Ġfor 1.2938186
Ġdifferent 7.729148
Ġcircumstances 3.533024
. 0.16383445
Ċ 0.8892927
Ar 5.856757
uru 0.03534387
, 0.5577735
ĠM 2.2909627
., 0.5607805
ĠTru 9.925874
ong 0.92183065
, 0.031383164
ĠH 2.3875434
. 0.9879481
ĠA 3.8143363
., 0.08715257
Ġ& 1.0589732
ĠClark 8.137836
, 0.0246208
ĠS 2.721298
. 0.005359303
Ġ( 0.6295878
20 0.9874991
21 0.001340884
). 0.09750002
ĠPharm 9.497674
acy 1.2920438
ĠEmergency 5.7505345
ĠPrep 1.9882259
ared 0.0032084396
ness 0.00045024627
Ġand 2.3833327
ĠResponse 0.5112553
Ġ( 4.050794
PE 3.004607
PR 0.08313629
): 1.236745
ĠA 1.3664137
Ġproposed 6.2569776
Ġframework 1.7512008
Ġfor 0.49480322
Ġexpanding 8.295347
Ġpharmacy 1.7739503
Ġprofessionals 7.0307174
bytes:\xe2\x80 2.7437809
bytes:\x99 0.003251612
Ġroles 1.6706567
Ġand 2.4678848
Ġcontributions 3.8388736
Ġto 1.3272374
Ġemergency 1.0730791
Ġprepared 0.3611869
ness 0.00056868145
Ġand 0.6993608
Ġresponse 0.040725615
Ġduring 6.079745
Ġthe 3.4843397
ĠCO 10.671484
VID 10.218511
- 4.7071757
19 9.477854
Ġpand 2.6166716
emic 0.00035394725
Ġand 3.9978056
Ġbeyond 0.7686245
Ġ. 2.7133203
ĠResearch 5.1549487
Ġin 0.48886016
ĠSocial 0.021797493
Ġand 0.4883656
ĠAdministrative 0.00028591757
ĠPharm 0.003184341
acy 0.0034539357
Ġ, 0.7563472
Ġ17 3.8539584
Ġ( 0.6201732
1 1.7484083
), 0.062385123
Ġ1967 13.530996
- 0.31840333
1977 2.752188
. 0.083782405
